-421.0 1.0 2.0 3.0 10.0 3.0 0.0 1.0 4.0 0.0 10.0 1.0 3.0 5.0 4.0 0.0 7.0 10.0 5.0 9.0 8.0 8.0 9.0 7.0 9.0 6.0 10.0 8.0 0.0 9.0 5.0 5.0 10.0 8.0 0.0 3.0 5.0 10.0 2.0 2.0 1.0 7.0 5.0 6.0 9.0 8.0 9.0 4.0 0.0 8.0 1.0 5.0 3.0 2.0 10.0 0.0 1.0 10.0 10.0 4.0 3.0 0.0 7.0 8.0 3.0 0.0 6.0 2.0 4.0 1.0 5.0 0.0 4.0 4.0 7.0 3.0 7.0 0.0 5.0 9.0 3.0 1.0 8.0 6.0 5.0 2.0 8.0 5.0 
1.0 -419.0 8.0 10.0 9.0 8.0 10.0 3.0 6.0 5.0 9.0 4.0 7.0 6.0 9.0 2.0 4.0 5.0 1.0 10.0 1.0 3.0 1.0 1.0 4.0 3.0 3.0 3.0 4.0 8.0 8.0 2.0 9.0 6.0 4.0 7.0 1.0 3.0 8.0 5.0 6.0 3.0 10.0 2.0 10.0 4.0 8.0 3.0 7.0 10.0 4.0 3.0 8.0 8.0 9.0 1.0 1.0 5.0 2.0 10.0 4.0 1.0 7.0 1.0 2.0 2.0 8.0 6.0 3.0 7.0 7.0 7.0 5.0 9.0 3.0 3.0 10.0 9.0 6.0 4.0 0.0 0.0 0.0 0.0 0.0 0.0 0.0 0.0 
2.0 8.0 -429.0 3.0 8.0 1.0 8.0 3.0 10.0 6.0 5.0 5.0 10.0 8.0 10.0 1.0 9.0 3.0 0.0 8.0 10.0 0.0 0.0 6.0 7.0 5.0 5.0 4.0 7.0 7.0 2.0 9.0 10.0 1.0 8.0 5.0 6.0 1.0 4.0 10.0 0.0 5.0 6.0 7.0 7.0 7.0 10.0 7.0 8.0 4.0 4.0 0.0 5.0 3.0 1.0 0.0 8.0 1.0 4.0 10.0 2.0 2.0 2.0 1.0 0.0 2.0 2.0 3.0 1.0 3.0 8.0 3.0 8.0 1.0 6.0 6.0 8.0 9.0 2.0 3.0 8.0 2.0 8.0 10.0 5.0 8.0 3.0 1.0 
3.0 10.0 3.0 -397.0 10.0 9.0 3.0 8.0 3.0 6.0 7.0 0.0 5.0 4.0 1.0 2.0 1.0 1.0 7.0 5.0 1.0 4.0 9.0 2.0 4.0 4.0 1.0 6.0 6.0 10.0 3.0 9.0 5.0 9.0 10.0 6.0 2.0 3.0 5.0 1.0 6.0 3.0 4.0 4.0 0.0 4.0 9.0 6.0 0.0 2.0 0.0 1.0 4.0 5.0 10.0 2.0 6.0 6.0 4.0 4.0 4.0 9.0 4.0 7.0 9.0 4.0 8.0 4.0 7.0 2.0 7.0 8.0 8.0 7.0 1.0 0.0 1.0 0.0 1.0 5.0 0.0 8.0 2.0 3.0 8.0 4.0 7.0 1.0 
10.0 9.0 8.0 10.0 -451.0 6.0 6.0 7.0 8.0 0.0 1.0 0.0 2.0 0.0 10.0 0.0 7.0 1.0 0.0 3.0 6.0 5.0 8.0 10.0 7.0 9.0 6.0 3.0 4.0 8.0 5.0 4.0 2.0 7.0 8.0 7.0 9.0 0.0 8.0 5.0 7.0 6.0 1.0 4.0 8.0 3.0 3.0 8.0 2.0 1.0 5.0 10.0 9.0 7.0 3.0 0.0 9.0 1.0 6.0 7.0 9.0 6.0 1.0 8.0 5.0 0.0 7.0 4.0 7.0 3.0 6.0 9.0 5.0 2.0 4.0 8.0 1.0 3.0 8.0 4.0 0.0 9.0 9.0 6.0 2.0 10.0 3.0 3.0 
3.0 8.0 1.0 9.0 6.0 -438.0 8.0 10.0 2.0 6.0 9.0 6.0 3.0 7.0 10.0 3.0 1.0 7.0 3.0 2.0 1.0 3.0 6.0 6.0 4.0 5.0 9.0 2.0 7.0 6.0 2.0 2.0 4.0 1.0 8.0 10.0 5.0 0.0 2.0 6.0 10.0 4.0 3.0 3.0 5.0 2.0 1.0 9.0 8.0 10.0 2.0 1.0 6.0 3.0 7.0 6.0 4.0 3.0 3.0 7.0 1.0 7.0 8.0 8.0 2.0 10.0 5.0 4.0 4.0 8.0 2.0 3.0 10.0 4.0 2.0 10.0 3.0 6.0 7.0 4.0 9.0 0.0 7.0 8.0 3.0 1.0 5.0 7.0 
0.0 10.0 8.0 3.0 6.0 8.0 -410.0 10.0 7.0 1.0 6.0 8.0 3.0 2.0 4.0 5.0 4.0 8.0 0.0 0.0 7.0 1.0 1.0 9.0 0.0 8.0 6.0 2.0 6.0 5.0 4.0 0.0 3.0 10.0 5.0 6.0 0.0 0.0 4.0 10.0 1.0 7.0 9.0 3.0 2.0 2.0 8.0 10.0 9.0 0.0 10.0 6.0 2.0 5.0 9.0 0.0 8.0 5.0 0.0 1.0 5.0 3.0 3.0 0.0 5.0 7.0 6.0 1.0 2.0 10.0 8.0 6.0 0.0 3.0 9.0 5.0 2.0 6.0 4.0 4.0 7.0 5.0 3.0 2.0 10.0 5.0 10.0 2.0 
1.0 3.0 3.0 8.0 7.0 10.0 10.0 -440.0 7.0 7.0 4.0 10.0 2.0 4.0 1.0 0.0 4.0 3.0 0.0 5.0 2.0 5.0 8.0 7.0 6.0 5.0 10.0 7.0 5.0 4.0 1.0 9.0 6.0 2.0 10.0 0.0 7.0 2.0 7.0 2.0 2.0 9.0 6.0 3.0 9.0 2.0 10.0 6.0 4.0 0.0 3.0 10.0 6.0 0.0 5.0 1.0 0.0 6.0 8.0 7.0 7.0 6.0 10.0 0.0 9.0 7.0 4.0 0.0 4.0 8.0 4.0 8.0 5.0 8.0 2.0 2.0 0.0 4.0 4.0 7.0 4.0 5.0 5.0 10.0 2.0 10.0 9.0 5.0 
4.0 6.0 10.0 3.0 8.0 2.0 7.0 7.0 -422.0 0.0 0.0 4.0 2.0 4.0 4.0 1.0 4.0 10.0 8.0 3.0 3.0 4.0 1.0 0.0 6.0 9.0 2.0 6.0 3.0 0.0 6.0 4.0 8.0 7.0 5.0 3.0 2.0 7.0 6.0 4.0 9.0 9.0 9.0 0.0 10.0 3.0 4.0 2.0 10.0 5.0 0.0 6.0 8.0 7.0 5.0 4.0 4.0 10.0 1.0 0.0 0.0 2.0 5.0 10.0 10.0 4.0 4.0 0.0 8.0 9.0 3.0 3.0 9.0 1.0 6.0 7.0 1.0 6.0 7.0 5.0 8.0 6.0 6.0 2.0 7.0 10.0 0.0 4.0 
0.0 5.0 6.0 6.0 0.0 6.0 1.0 7.0 0.0 -421.0 3.0 5.0 5.0 0.0 5.0 9.0 1.0 2.0 10.0 3.0 9.0 8.0 2.0 9.0 0.0 2.0 10.0 9.0 4.0 7.0 5.0 5.0 2.0 7.0 8.0 3.0 9.0 5.0 9.0 7.0 9.0 5.0 3.0 5.0 7.0 9.0 9.0 0.0 10.0 6.0 1.0 2.0 6.0 7.0 9.0 0.0 8.0 1.0 5.0 10.0 3.0 4.0 6.0 8.0 2.0 2.0 2.0 9.0 0.0 3.0 0.0 9.0 2.0 0.0 8.0 7.0 5.0 0.0 8.0 2.0 1.0 4.0 8.0 9.0 1.0 4.0 3.0 5.0 
10.0 9.0 5.0 7.0 1.0 9.0 6.0 4.0 0.0 3.0 -430.0 4.0 7.0 2.0 0.0 0.0 0.0 2.0 0.0 3.0 6.0 5.0 5.0 0.0 0.0 0.0 3.0 9.0 4.0 1.0 2.0 10.0 0.0 7.0 4.0 9.0 4.0 5.0 3.0 7.0 10.0 8.0 3.0 4.0 6.0 1.0 8.0 6.0 8.0 0.0 7.0 8.0 0.0 7.0 2.0 8.0 8.0 6.0 3.0 2.0 8.0 3.0 4.0 6.0 6.0 10.0 7.0 7.0 9.0 4.0 9.0 0.0 3.0 4.0 9.0 6.0 10.0 0.0 6.0 2.0 2.0 9.0 6.0 10.0 10.0 5.0 4.0 10.0 
1.0 4.0 5.0 0.0 0.0 6.0 8.0 10.0 4.0 5.0 4.0 -397.0 0.0 3.0 6.0 4.0 1.0 4.0 5.0 0.0 9.0 5.0 0.0 3.0 5.0 5.0 4.0 9.0 2.0 8.0 8.0 6.0 1.0 2.0 0.0 0.0 0.0 1.0 9.0 4.0 9.0 0.0 10.0 10.0 8.0 1.0 7.0 9.0 5.0 6.0 2.0 4.0 5.0 1.0 1.0 10.0 1.0 7.0 4.0 6.0 9.0 2.0 3.0 8.0 8.0 10.0 4.0 10.0 4.0 2.0 9.0 5.0 4.0 9.0 7.0 8.0 1.0 3.0 8.0 6.0 2.0 1.0 4.0 6.0 2.0 0.0 1.0 4.0 
3.0 7.0 10.0 5.0 2.0 3.0 3.0 2.0 2.0 5.0 7.0 0.0 -541.0 6.0 1.0 2.0 5.0 10.0 9.0 10.0 4.0 5.0 4.0 8.0 10.0 10.0 8.0 0.0 10.0 10.0 3.0 8.0 9.0 3.0 8.0 2.0 3.0 10.0 6.0 5.0 6.0 5.0 4.0 8.0 10.0 9.0 9.0 8.0 10.0 9.0 6.0 8.0 3.0 9.0 2.0 8.0 9.0 9.0 1.0 10.0 10.0 5.0 8.0 3.0 6.0 9.0 9.0 5.0 10.0 7.0 7.0 8.0 6.0 4.0 10.0 7.0 2.0 5.0 3.0 6.0 0.0 0.0 4.0 8.0 9.0 9.0 10.0 10.0 
5.0 6.0 8.0 4.0 0.0 7.0 2.0 4.0 4.0 0.0 2.0 3.0 6.0 -426.0 2.0 8.0 6.0 6.0 9.0 1.0 5.0 1.0 3.0 10.0 3.0 0.0 2.0 9.0 1.0 7.0 1.0 7.0 8.0 5.0 6.0 8.0 10.0 5.0 9.0 5.0 5.0 4.0 10.0 6.0 1.0 0.0 2.0 6.0 4.0 1.0 5.0 9.0 1.0 9.0 1.0 4.0 10.0 4.0 2.0 7.0 6.0 8.0 10.0 4.0 7.0 9.0 4.0 5.0 10.0 6.0 3.0 4.0 7.0 10.0 5.0 5.0 1.0 7.0 1.0 1.0 1.0 3.0 7.0 6.0 10.0 2.0 5.0 0.0 
4.0 9.0 10.0 1.0 10.0 10.0 4.0 1.0 4.0 5.0 0.0 6.0 1.0 2.0 -418.0 8.0 7.0 4.0 3.0 9.0 3.0 4.0 0.0 7.0 1.0 7.0 3.0 3.0 9.0 6.0 0.0 3.0 0.0 0.0 6.0 6.0 6.0 2.0 4.0 5.0 0.0 8.0 3.0 3.0 0.0 10.0 6.0 8.0 10.0 0.0 1.0 0.0 1.0 9.0 7.0 9.0 7.0 9.0 4.0 5.0 5.0 3.0 9.0 6.0 8.0 8.0 0.0 4.0 9.0 8.0 6.0 4.0 5.0 0.0 8.0 0.0 9.0 3.0 0.0 6.0 10.0 7.0 7.0 3.0 7.0 2.0 1.0 7.0 
0.0 2.0 1.0 2.0 0.0 3.0 5.0 0.0 1.0 9.0 0.0 4.0 2.0 8.0 8.0 -418.0 1.0 9.0 7.0 8.0 10.0 1.0 9.0 6.0 0.0 10.0 4.0 10.0 2.0 5.0 8.0 7.0 0.0 1.0 8.0 8.0 8.0 7.0 7.0 3.0 6.0 3.0 7.0 3.0 6.0 1.0 0.0 7.0 5.0 1.0 8.0 5.0 10.0 6.0 10.0 9.0 0.0 6.0 2.0 5.0 5.0 7.0 5.0 3.0 1.0 6.0 2.0 0.0 6.0 6.0 3.0 0.0 6.0 4.0 4.0 6.0 0.0 1.0 10.0 3.0 8.0 9.0 9.0 5.0 3.0 3.0 9.0 10.0 
7.0 4.0 9.0 1.0 7.0 1.0 4.0 4.0 4.0 1.0 0.0 1.0 5.0 6.0 7.0 1.0 -374.0 10.0 8.0 7.0 0.0 3.0 3.0 7.0 0.0 3.0 9.0 7.0 3.0 1.0 3.0 1.0 7.0 0.0 8.0 7.0 4.0 2.0 10.0 8.0 8.0 3.0 7.0 4.0 2.0 7.0 1.0 5.0 8.0 1.0 5.0 6.0 9.0 2.0 2.0 10.0 1.0 6.0 9.0 1.0 9.0 0.0 3.0 5.0 4.0 3.0 1.0 9.0 0.0 1.0 3.0 0.0 1.0 10.0 3.0 7.0 3.0 6.0 2.0 4.0 0.0 6.0 8.0 4.0 1.0 1.0 3.0 7.0 
10.0 5.0 3.0 1.0 1.0 7.0 8.0 3.0 10.0 2.0 2.0 4.0 10.0 6.0 4.0 9.0 10.0 -480.0 2.0 5.0 3.0 6.0 9.0 7.0 3.0 1.0 2.0 0.0 5.0 8.0 4.0 8.0 2.0 8.0 2.0 1.0 5.0 10.0 0.0 3.0 9.0 2.0 3.0 5.0 8.0 10.0 0.0 1.0 8.0 4.0 4.0 3.0 1.0 7.0 7.0 8.0 10.0 8.0 6.0 4.0 9.0 8.0 5.0 10.0 8.0 1.0 7.0 10.0 3.0 9.0 5.0 9.0 4.0 2.0 7.0 7.0 8.0 6.0 6.0 6.0 7.0 7.0 9.0 6.0 2.0 7.0 7.0 8.0 
5.0 1.0 0.0 7.0 0.0 3.0 0.0 0.0 8.0 10.0 0.0 5.0 9.0 9.0 3.0 7.0 8.0 2.0 -429.0 5.0 8.0 6.0 6.0 6.0 5.0 9.0 5.0 8.0 5.0 0.0 8.0 6.0 10.0 1.0 0.0 1.0 3.0 9.0 1.0 8.0 2.0 6.0 1.0 0.0 0.0 2.0 1.0 8.0 5.0 2.0 0.0 0.0 9.0 0.0 9.0 3.0 10.0 9.0 0.0 4.0 10.0 2.0 9.0 10.0 9.0 5.0 7.0 10.0 4.0 7.0 8.0 5.0 7.0 10.0 2.0 7.0 10.0 2.0 1.0 7.0 9.0 6.0 0.0 6.0 3.0 0.0 5.0 10.0 
9.0 10.0 8.0 5.0 3.0 2.0 0.0 5.0 3.0 3.0 3.0 0.0 10.0 1.0 9.0 8.0 7.0 5.0 5.0 -451.0 8.0 6.0 6.0 8.0 5.0 6.0 10.0 1.0 10.0 9.0 2.0 5.0 4.0 6.0 2.0 8.0 5.0 3.0 7.0 9.0 9.0 4.0 8.0 5.0 5.0 0.0 7.0 1.0 8.0 10.0 5.0 0.0 3.0 0.0 4.0 8.0 1.0 3.0 8.0 5.0 8.0 7.0 9.0 6.0 7.0 0.0 6.0 9.0 1.0 9.0 4.0 8.0 8.0 10.0 4.0 0.0 7.0 6.0 5.0 2.0 3.0 1.0 5.0 4.0 2.0 9.0 0.0 1.0 
8.0 1.0 10.0 1.0 6.0 1.0 7.0 2.0 3.0 9.0 6.0 9.0 4.0 5.0 3.0 10.0 0.0 3.0 8.0 8.0 -445.0 8.0 1.0 9.0 8.0 2.0 2.0 7.0 0.0 2.0 6.0 2.0 3.0 7.0 2.0 0.0 1.0 4.0 5.0 9.0 6.0 3.0 9.0 1.0 5.0 8.0 7.0 7.0 1.0 0.0 10.0 8.0 6.0 4.0 2.0 9.0 5.0 5.0 3.0 5.0 2.0 4.0 10.0 4.0 1.0 10.0 7.0 5.0 3.0 8.0 8.0 4.0 3.0 10.0 10.0 9.0 10.0 5.0 5.0 8.0 3.0 5.0 2.0 2.0 2.0 4.0 9.0 6.0 
8.0 3.0 0.0 4.0 5.0 3.0 1.0 5.0 4.0 8.0 5.0 5.0 5.0 1.0 4.0 1.0 3.0 6.0 6.0 6.0 8.0 -434.0 3.0 7.0 10.0 5.0 7.0 1.0 1.0 4.0 0.0 9.0 1.0 5.0 2.0 8.0 10.0 4.0 1.0 4.0 9.0 8.0 0.0 5.0 0.0 1.0 0.0 4.0 5.0 9.0 6.0 7.0 8.0 9.0 9.0 10.0 5.0 9.0 8.0 4.0 8.0 9.0 2.0 7.0 0.0 10.0 6.0 1.0 0.0 2.0 5.0 6.0 7.0 3.0 4.0 4.0 10.0 8.0 10.0 8.0 0.0 7.0 5.0 0.0 7.0 6.0 7.0 3.0 
9.0 1.0 0.0 9.0 8.0 6.0 1.0 8.0 1.0 2.0 5.0 0.0 4.0 3.0 0.0 9.0 3.0 9.0 6.0 6.0 1.0 3.0 -405.0 9.0 4.0 0.0 0.0 3.0 1.0 5.0 10.0 5.0 6.0 3.0 1.0 1.0 2.0 8.0 3.0 2.0 3.0 2.0 9.0 4.0 7.0 1.0 3.0 5.0 10.0 3.0 6.0 7.0 0.0 8.0 6.0 8.0 6.0 6.0 4.0 5.0 7.0 10.0 5.0 0.0 1.0 4.0 8.0 6.0 8.0 1.0 9.0 1.0 7.0 6.0 2.0 6.0 3.0 4.0 7.0 8.0 10.0 9.0 6.0 1.0 3.0 1.0 9.0 3.0 
7.0 1.0 6.0 2.0 10.0 6.0 9.0 7.0 0.0 9.0 0.0 3.0 8.0 10.0 7.0 6.0 7.0 7.0 6.0 8.0 9.0 7.0 9.0 -476.0 9.0 7.0 4.0 9.0 4.0 7.0 1.0 5.0 3.0 10.0 0.0 0.0 7.0 1.0 8.0 6.0 4.0 10.0 7.0 1.0 1.0 1.0 0.0 2.0 3.0 3.0 0.0 4.0 8.0 10.0 6.0 8.0 2.0 5.0 3.0 4.0 10.0 3.0 3.0 1.0 8.0 4.0 5.0 3.0 5.0 10.0 6.0 8.0 8.0 10.0 9.0 7.0 8.0 2.0 9.0 8.0 7.0 1.0 6.0 10.0 9.0 6.0 1.0 2.0 
9.0 4.0 7.0 4.0 7.0 4.0 0.0 6.0 6.0 0.0 0.0 5.0 10.0 3.0 1.0 0.0 0.0 3.0 5.0 5.0 8.0 10.0 4.0 9.0 -415.0 8.0 2.0 6.0 5.0 9.0 9.0 6.0 2.0 3.0 8.0 8.0 3.0 5.0 0.0 8.0 7.0 6.0 7.0 6.0 6.0 10.0 3.0 6.0 2.0 0.0 7.0 7.0 2.0 7.0 3.0 3.0 6.0 10.0 6.0 4.0 0.0 10.0 4.0 1.0 3.0 6.0 2.0 9.0 6.0 3.0 3.0 0.0 8.0 2.0 2.0 3.0 0.0 5.0 9.0 0.0 8.0 2.0 0.0 9.0 6.0 2.0 2.0 10.0 
6.0 3.0 5.0 4.0 9.0 5.0 8.0 5.0 9.0 2.0 0.0 5.0 10.0 0.0 7.0 10.0 3.0 1.0 9.0 6.0 2.0 5.0 0.0 7.0 8.0 -468.0 8.0 4.0 8.0 5.0 8.0 10.0 8.0 7.0 1.0 1.0 1.0 9.0 7.0 9.0 4.0 4.0 10.0 5.0 6.0 0.0 0.0 0.0 10.0 6.0 7.0 2.0 9.0 4.0 3.0 1.0 9.0 2.0 5.0 2.0 2.0 10.0 4.0 10.0 4.0 10.0 9.0 1.0 2.0 4.0 2.0 1.0 7.0 10.0 8.0 10.0 7.0 6.0 6.0 8.0 6.0 10.0 4.0 2.0 0.0 9.0 6.0 6.0 
10.0 3.0 5.0 1.0 6.0 9.0 6.0 10.0 2.0 10.0 3.0 4.0 8.0 2.0 3.0 4.0 9.0 2.0 5.0 10.0 2.0 7.0 0.0 4.0 2.0 8.0 -415.0 0.0 6.0 7.0 2.0 4.0 0.0 2.0 9.0 0.0 7.0 4.0 6.0 5.0 8.0 1.0 8.0 0.0 0.0 7.0 9.0 4.0 6.0 5.0 9.0 2.0 10.0 3.0 7.0 1.0 4.0 0.0 9.0 2.0 1.0 8.0 8.0 2.0 8.0 5.0 1.0 4.0 7.0 0.0 4.0 7.0 2.0 10.0 5.0 7.0 2.0 5.0 0.0 5.0 10.0 4.0 7.0 3.0 4.0 3.0 7.0 4.0 
8.0 3.0 4.0 6.0 3.0 2.0 2.0 7.0 6.0 9.0 9.0 9.0 0.0 9.0 3.0 10.0 7.0 0.0 8.0 1.0 7.0 1.0 3.0 9.0 6.0 4.0 0.0 -420.0 8.0 0.0 2.0 8.0 6.0 0.0 0.0 7.0 6.0 7.0 9.0 0.0 8.0 6.0 8.0 10.0 0.0 3.0 10.0 6.0 5.0 0.0 2.0 6.0 0.0 1.0 2.0 1.0 2.0 6.0 10.0 10.0 7.0 0.0 4.0 4.0 0.0 2.0 9.0 6.0 10.0 3.0 3.0 7.0 3.0 9.0 8.0 2.0 5.0 2.0 8.0 7.0 0.0 0.0 2.0 10.0 8.0 2.0 6.0 8.0 
0.0 4.0 7.0 6.0 4.0 7.0 6.0 5.0 3.0 4.0 4.0 2.0 10.0 1.0 9.0 2.0 3.0 5.0 5.0 10.0 0.0 1.0 1.0 4.0 5.0 8.0 6.0 8.0 -428.0 4.0 7.0 4.0 2.0 4.0 0.0 6.0 3.0 8.0 7.0 9.0 7.0 2.0 10.0 7.0 10.0 3.0 5.0 7.0 4.0 5.0 3.0 0.0 5.0 10.0 9.0 6.0 6.0 10.0 10.0 1.0 8.0 1.0 9.0 6.0 0.0 0.0 3.0 8.0 3.0 1.0 0.0 1.0 6.0 2.0 2.0 8.0 6.0 6.0 0.0 6.0 1.0 7.0 7.0 5.0 8.0 7.0 5.0 8.0 
9.0 8.0 7.0 10.0 8.0 6.0 5.0 4.0 0.0 7.0 1.0 8.0 10.0 7.0 6.0 5.0 1.0 8.0 0.0 9.0 2.0 4.0 5.0 7.0 9.0 5.0 7.0 0.0 4.0 -448.0 2.0 9.0 9.0 2.0 3.0 6.0 2.0 8.0 2.0 0.0 9.0 6.0 0.0 4.0 3.0 6.0 5.0 3.0 10.0 10.0 4.0 4.0 9.0 0.0 6.0 4.0 5.0 7.0 3.0 6.0 10.0 3.0 10.0 4.0 5.0 3.0 3.0 1.0 7.0 1.0 1.0 5.0 5.0 9.0 4.0 2.0 9.0 1.0 6.0 10.0 2.0 9.0 1.0 6.0 0.0 9.0 6.0 7.0 
5.0 8.0 2.0 3.0 5.0 2.0 4.0 1.0 6.0 5.0 2.0 8.0 3.0 1.0 0.0 8.0 3.0 4.0 8.0 2.0 6.0 0.0 10.0 1.0 9.0 8.0 2.0 2.0 7.0 2.0 -436.0 4.0 5.0 8.0 8.0 7.0 1.0 7.0 4.0 10.0 10.0 6.0 3.0 10.0 5.0 5.0 2.0 7.0 3.0 8.0 8.0 3.0 6.0 1.0 3.0 4.0 5.0 9.0 5.0 8.0 8.0 9.0 2.0 4.0 5.0 2.0 1.0 4.0 2.0 0.0 7.0 5.0 7.0 9.0 8.0 5.0 0.0 9.0 4.0 7.0 4.0 6.0 1.0 8.0 5.0 8.0 6.0 8.0 
5.0 2.0 9.0 9.0 4.0 2.0 0.0 9.0 4.0 5.0 10.0 6.0 8.0 7.0 3.0 7.0 1.0 8.0 6.0 5.0 2.0 9.0 5.0 5.0 6.0 10.0 4.0 8.0 4.0 9.0 4.0 -492.0 10.0 10.0 5.0 8.0 10.0 2.0 6.0 1.0 2.0 3.0 0.0 1.0 10.0 7.0 9.0 2.0 9.0 8.0 8.0 5.0 7.0 7.0 4.0 3.0 1.0 5.0 1.0 4.0 8.0 7.0 4.0 2.0 7.0 9.0 8.0 8.0 5.0 6.0 9.0 3.0 9.0 2.0 8.0 5.0 1.0 4.0 3.0 9.0 10.0 7.0 9.0 3.0 1.0 8.0 7.0 6.0 
10.0 9.0 10.0 5.0 2.0 4.0 3.0 6.0 8.0 2.0 0.0 1.0 9.0 8.0 0.0 0.0 7.0 2.0 10.0 4.0 3.0 1.0 6.0 3.0 2.0 8.0 0.0 6.0 2.0 9.0 5.0 10.0 -445.0 4.0 0.0 10.0 6.0 3.0 3.0 8.0 10.0 8.0 10.0 10.0 0.0 9.0 4.0 10.0 3.0 0.0 4.0 1.0 1.0 2.0 3.0 1.0 10.0 7.0 1.0 10.0 10.0 1.0 8.0 5.0 0.0 9.0 2.0 3.0 0.0 7.0 6.0 4.0 6.0 6.0 5.0 8.0 7.0 10.0 2.0 0.0 8.0 6.0 10.0 4.0 2.0 9.0 10.0 4.0 
8.0 6.0 1.0 9.0 7.0 1.0 10.0 2.0 7.0 7.0 7.0 2.0 3.0 5.0 0.0 1.0 0.0 8.0 1.0 6.0 7.0 5.0 3.0 10.0 3.0 7.0 2.0 0.0 4.0 2.0 8.0 10.0 4.0 -416.0 0.0 1.0 8.0 7.0 1.0 5.0 5.0 3.0 4.0 9.0 4.0 2.0 9.0 3.0 2.0 6.0 10.0 2.0 8.0 1.0 6.0 4.0 2.0 8.0 6.0 7.0 7.0 1.0 1.0 4.0 1.0 9.0 4.0 4.0 10.0 6.0 1.0 3.0 3.0 6.0 5.0 8.0 2.0 2.0 10.0 9.0 5.0 8.0 0.0 9.0 5.0 7.0 0.0 7.0 
0.0 4.0 8.0 10.0 8.0 8.0 5.0 10.0 5.0 8.0 4.0 0.0 8.0 6.0 6.0 8.0 8.0 2.0 0.0 2.0 2.0 2.0 1.0 0.0 8.0 1.0 9.0 0.0 0.0 3.0 8.0 5.0 0.0 0.0 -437.0 2.0 8.0 8.0 6.0 9.0 5.0 3.0 6.0 8.0 3.0 5.0 1.0 7.0 10.0 4.0 9.0 6.0 4.0 6.0 2.0 0.0 8.0 4.0 8.0 2.0 10.0 8.0 9.0 4.0 0.0 0.0 2.0 7.0 0.0 6.0 1.0 10.0 3.0 5.0 2.0 3.0 4.0 9.0 4.0 1.0 9.0 10.0 8.0 9.0 8.0 4.0 8.0 10.0 
3.0 7.0 5.0 6.0 7.0 10.0 6.0 0.0 3.0 3.0 9.0 0.0 2.0 8.0 6.0 8.0 7.0 1.0 1.0 8.0 0.0 8.0 1.0 0.0 8.0 1.0 0.0 7.0 6.0 6.0 7.0 8.0 10.0 1.0 2.0 -476.0 1.0 10.0 8.0 10.0 7.0 7.0 8.0 8.0 8.0 10.0 3.0 9.0 7.0 6.0 5.0 8.0 8.0 1.0 3.0 6.0 4.0 3.0 6.0 8.0 6.0 3.0 3.0 10.0 6.0 1.0 7.0 3.0 9.0 2.0 10.0 7.0 7.0 3.0 4.0 4.0 10.0 0.0 9.0 6.0 7.0 6.0 6.0 10.0 2.0 1.0 9.0 6.0 
5.0 1.0 6.0 2.0 9.0 5.0 0.0 7.0 2.0 9.0 4.0 0.0 3.0 10.0 6.0 8.0 4.0 5.0 3.0 5.0 1.0 10.0 2.0 7.0 3.0 1.0 7.0 6.0 3.0 2.0 1.0 10.0 6.0 8.0 8.0 1.0 -414.0 6.0 2.0 8.0 4.0 0.0 10.0 7.0 7.0 6.0 10.0 1.0 0.0 4.0 2.0 9.0 6.0 4.0 4.0 3.0 0.0 6.0 5.0 7.0 1.0 7.0 7.0 4.0 8.0 4.0 3.0 8.0 5.0 5.0 0.0 4.0 0.0 10.0 10.0 10.0 1.0 5.0 2.0 8.0 9.0 0.0 1.0 1.0 8.0 3.0 7.0 2.0 
10.0 3.0 1.0 3.0 0.0 0.0 0.0 2.0 7.0 5.0 5.0 1.0 10.0 5.0 2.0 7.0 2.0 10.0 9.0 3.0 4.0 4.0 8.0 1.0 5.0 9.0 4.0 7.0 8.0 8.0 7.0 2.0 3.0 7.0 8.0 10.0 6.0 -455.0 9.0 5.0 9.0 0.0 3.0 7.0 8.0 10.0 6.0 5.0 5.0 10.0 0.0 9.0 7.0 3.0 10.0 7.0 10.0 8.0 2.0 0.0 3.0 3.0 1.0 2.0 6.0 10.0 0.0 8.0 6.0 7.0 9.0 9.0 1.0 2.0 9.0 9.0 9.0 7.0 5.0 2.0 3.0 6.0 4.0 0.0 5.0 0.0 5.0 5.0 
2.0 8.0 4.0 5.0 8.0 2.0 4.0 7.0 6.0 9.0 3.0 9.0 6.0 9.0 4.0 7.0 10.0 0.0 1.0 7.0 5.0 1.0 3.0 8.0 0.0 7.0 6.0 9.0 7.0 2.0 4.0 6.0 3.0 1.0 6.0 8.0 2.0 9.0 -422.0 6.0 0.0 7.0 6.0 7.0 3.0 4.0 6.0 7.0 2.0 2.0 10.0 4.0 5.0 5.0 1.0 7.0 4.0 6.0 5.0 5.0 0.0 3.0 9.0 8.0 0.0 2.0 0.0 7.0 3.0 9.0 5.0 9.0 6.0 7.0 2.0 8.0 1.0 2.0 8.0 4.0 1.0 8.0 1.0 1.0 5.0 8.0 5.0 0.0 
2.0 5.0 10.0 1.0 5.0 6.0 10.0 2.0 4.0 7.0 7.0 4.0 5.0 5.0 5.0 3.0 8.0 3.0 8.0 9.0 9.0 4.0 2.0 6.0 8.0 9.0 5.0 0.0 9.0 0.0 10.0 1.0 8.0 5.0 9.0 10.0 8.0 5.0 6.0 -438.0 0.0 4.0 0.0 6.0 8.0 3.0 9.0 7.0 2.0 0.0 1.0 7.0 5.0 0.0 4.0 8.0 1.0 0.0 3.0 10.0 5.0 8.0 3.0 3.0 10.0 2.0 4.0 0.0 8.0 7.0 2.0 5.0 10.0 7.0 9.0 9.0 9.0 0.0 1.0 10.0 7.0 10.0 0.0 0.0 0.0 4.0 1.0 3.0 
1.0 6.0 0.0 6.0 7.0 10.0 1.0 2.0 9.0 9.0 10.0 9.0 6.0 5.0 0.0 6.0 8.0 9.0 2.0 9.0 6.0 9.0 3.0 4.0 7.0 4.0 8.0 8.0 7.0 9.0 10.0 2.0 10.0 5.0 5.0 7.0 4.0 9.0 0.0 0.0 -489.0 6.0 1.0 7.0 8.0 10.0 5.0 4.0 3.0 5.0 5.0 4.0 3.0 8.0 6.0 2.0 4.0 4.0 6.0 1.0 10.0 4.0 9.0 8.0 7.0 1.0 2.0 4.0 2.0 7.0 8.0 8.0 6.0 2.0 5.0 6.0 9.0 6.0 3.0 1.0 1.0 10.0 10.0 9.0 2.0 8.0 7.0 10.0 
7.0 3.0 5.0 3.0 6.0 4.0 7.0 9.0 9.0 5.0 8.0 0.0 5.0 4.0 8.0 3.0 3.0 2.0 6.0 4.0 3.0 8.0 2.0 10.0 6.0 4.0 1.0 6.0 2.0 6.0 6.0 3.0 8.0 3.0 3.0 7.0 0.0 0.0 7.0 4.0 6.0 -403.0 5.0 10.0 1.0 1.0 10.0 1.0 2.0 5.0 2.0 8.0 3.0 0.0 9.0 3.0 4.0 5.0 5.0 8.0 4.0 0.0 5.0 6.0 5.0 2.0 0.0 4.0 4.0 4.0 3.0 3.0 10.0 7.0 4.0 4.0 7.0 9.0 6.0 6.0 10.0 4.0 4.0 5.0 5.0 0.0 4.0 0.0 
5.0 10.0 6.0 4.0 1.0 3.0 9.0 6.0 9.0 3.0 3.0 10.0 4.0 10.0 3.0 7.0 7.0 3.0 1.0 8.0 9.0 0.0 9.0 7.0 7.0 10.0 8.0 8.0 10.0 0.0 3.0 0.0 10.0 4.0 6.0 8.0 10.0 3.0 6.0 0.0 1.0 5.0 -489.0 10.0 10.0 3.0 7.0 2.0 9.0 0.0 0.0 7.0 9.0 5.0 6.0 10.0 4.0 6.0 9.0 1.0 4.0 1.0 0.0 8.0 2.0 2.0 9.0 10.0 2.0 10.0 7.0 6.0 10.0 4.0 10.0 10.0 4.0 9.0 10.0 9.0 10.0 4.0 4.0 2.0 3.0 0.0 3.0 2.0 
6.0 2.0 7.0 4.0 4.0 3.0 3.0 3.0 0.0 5.0 4.0 10.0 8.0 6.0 3.0 3.0 4.0 5.0 0.0 5.0 1.0 5.0 4.0 1.0 6.0 5.0 0.0 10.0 7.0 4.0 10.0 1.0 10.0 9.0 8.0 8.0 7.0 7.0 7.0 6.0 7.0 10.0 10.0 -392.0 9.0 2.0 0.0 0.0 4.0 1.0 9.0 2.0 4.0 6.0 5.0 7.0 5.0 6.0 6.0 4.0 7.0 4.0 2.0 1.0 4.0 10.0 4.0 10.0 1.0 1.0 2.0 9.0 1.0 3.0 1.0 0.0 4.0 1.0 0.0 0.0 4.0 3.0 3.0 4.0 3.0 2.0 9.0 1.0 
9.0 10.0 7.0 0.0 8.0 5.0 2.0 9.0 10.0 7.0 6.0 8.0 10.0 1.0 0.0 6.0 2.0 8.0 0.0 5.0 5.0 0.0 7.0 1.0 6.0 6.0 0.0 0.0 10.0 3.0 5.0 10.0 0.0 4.0 3.0 8.0 7.0 8.0 3.0 8.0 8.0 1.0 10.0 9.0 -412.0 4.0 9.0 1.0 10.0 10.0 0.0 1.0 2.0 0.0 2.0 0.0 4.0 0.0 3.0 10.0 0.0 2.0 3.0 8.0 1.0 2.0 7.0 3.0 5.0 1.0 5.0 8.0 4.0 5.0 3.0 10.0 4.0 3.0 3.0 8.0 9.0 0.0 0.0 7.0 6.0 5.0 9.0 0.0 
8.0 4.0 7.0 4.0 3.0 2.0 2.0 2.0 3.0 9.0 1.0 1.0 9.0 0.0 10.0 1.0 7.0 10.0 2.0 0.0 8.0 1.0 1.0 1.0 10.0 0.0 7.0 3.0 3.0 6.0 5.0 7.0 9.0 2.0 5.0 10.0 6.0 10.0 4.0 3.0 10.0 1.0 3.0 2.0 4.0 -401.0 8.0 1.0 5.0 5.0 6.0 6.0 8.0 0.0 8.0 1.0 2.0 4.0 6.0 5.0 10.0 8.0 8.0 1.0 10.0 5.0 4.0 2.0 6.0 1.0 6.0 7.0 0.0 2.0 2.0 4.0 4.0 4.0 5.0 6.0 8.0 2.0 9.0 3.0 1.0 5.0 5.0 2.0 
9.0 8.0 10.0 9.0 3.0 1.0 8.0 10.0 4.0 9.0 8.0 7.0 9.0 2.0 6.0 0.0 1.0 0.0 1.0 7.0 7.0 0.0 3.0 0.0 3.0 0.0 9.0 10.0 5.0 5.0 2.0 9.0 4.0 9.0 1.0 3.0 10.0 6.0 6.0 9.0 5.0 10.0 7.0 0.0 9.0 8.0 -440.0 10.0 6.0 3.0 8.0 3.0 0.0 10.0 10.0 1.0 4.0 8.0 4.0 3.0 3.0 2.0 9.0 1.0 6.0 0.0 4.0 7.0 1.0 5.0 3.0 6.0 9.0 4.0 2.0 3.0 0.0 0.0 10.0 4.0 5.0 8.0 2.0 6.0 4.0 4.0 1.0 9.0 
4.0 3.0 7.0 6.0 8.0 9.0 10.0 6.0 2.0 0.0 6.0 9.0 8.0 6.0 8.0 7.0 5.0 1.0 8.0 1.0 7.0 4.0 5.0 2.0 6.0 0.0 4.0 6.0 7.0 3.0 7.0 2.0 10.0 3.0 7.0 9.0 1.0 5.0 7.0 7.0 4.0 1.0 2.0 0.0 1.0 1.0 10.0 -421.0 7.0 5.0 6.0 2.0 1.0 4.0 3.0 3.0 8.0 8.0 4.0 7.0 8.0 2.0 7.0 9.0 7.0 2.0 6.0 4.0 10.0 8.0 7.0 6.0 5.0 2.0 8.0 0.0 1.0 1.0 4.0 1.0 5.0 4.0 1.0 5.0 3.0 0.0 5.0 7.0 
0.0 7.0 8.0 0.0 2.0 8.0 9.0 4.0 10.0 10.0 8.0 5.0 10.0 4.0 10.0 5.0 8.0 8.0 5.0 8.0 1.0 5.0 10.0 3.0 2.0 10.0 6.0 5.0 4.0 10.0 3.0 9.0 3.0 2.0 10.0 7.0 0.0 5.0 2.0 2.0 3.0 2.0 9.0 4.0 10.0 5.0 6.0 7.0 -413.0 1.0 0.0 1.0 4.0 1.0 6.0 1.0 1.0 10.0 5.0 5.0 0.0 8.0 6.0 8.0 0.0 1.0 2.0 6.0 0.0 2.0 2.0 4.0 6.0 5.0 5.0 0.0 3.0 8.0 4.0 5.0 6.0 2.0 1.0 3.0 7.0 3.0 6.0 1.0 
8.0 10.0 4.0 2.0 1.0 10.0 0.0 0.0 5.0 6.0 0.0 6.0 9.0 1.0 0.0 1.0 1.0 4.0 2.0 10.0 0.0 9.0 3.0 3.0 0.0 6.0 5.0 0.0 5.0 10.0 8.0 8.0 0.0 6.0 4.0 6.0 4.0 10.0 2.0 0.0 5.0 5.0 0.0 1.0 10.0 5.0 3.0 5.0 1.0 -401.0 2.0 7.0 8.0 1.0 10.0 9.0 3.0 8.0 9.0 6.0 6.0 4.0 4.0 5.0 7.0 4.0 10.0 0.0 0.0 1.0 8.0 4.0 8.0 9.0 3.0 2.0 6.0 3.0 0.0 8.0 2.0 6.0 4.0 10.0 5.0 5.0 10.0 0.0 
1.0 4.0 4.0 0.0 5.0 2.0 10.0 3.0 0.0 1.0 7.0 2.0 6.0 5.0 1.0 8.0 5.0 4.0 0.0 5.0 10.0 6.0 6.0 0.0 7.0 7.0 9.0 2.0 3.0 4.0 8.0 8.0 4.0 10.0 9.0 5.0 2.0 0.0 10.0 1.0 5.0 2.0 0.0 9.0 0.0 6.0 8.0 6.0 0.0 2.0 -395.0 10.0 1.0 7.0 4.0 4.0 0.0 10.0 5.0 3.0 7.0 4.0 5.0 1.0 7.0 7.0 10.0 5.0 2.0 5.0 2.0 7.0 7.0 1.0 6.0 10.0 3.0 0.0 7.0 0.0 6.0 0.0 9.0 2.0 2.0 7.0 3.0 4.0 
5.0 3.0 0.0 1.0 10.0 1.0 6.0 10.0 6.0 2.0 8.0 4.0 8.0 9.0 0.0 5.0 6.0 3.0 0.0 0.0 8.0 7.0 7.0 4.0 7.0 2.0 2.0 6.0 0.0 4.0 3.0 5.0 1.0 2.0 6.0 8.0 9.0 9.0 4.0 7.0 4.0 8.0 7.0 2.0 1.0 6.0 3.0 2.0 1.0 7.0 10.0 -440.0 3.0 10.0 8.0 8.0 3.0 1.0 5.0 10.0 4.0 6.0 0.0 7.0 8.0 9.0 6.0 4.0 7.0 2.0 1.0 9.0 5.0 5.0 8.0 5.0 1.0 7.0 3.0 9.0 8.0 6.0 7.0 3.0 6.0 9.0 6.0 2.0 
3.0 8.0 5.0 4.0 9.0 6.0 2.0 6.0 8.0 6.0 0.0 5.0 3.0 1.0 1.0 10.0 9.0 1.0 9.0 3.0 6.0 8.0 0.0 8.0 2.0 9.0 10.0 0.0 5.0 9.0 6.0 7.0 1.0 8.0 4.0 8.0 6.0 7.0 5.0 5.0 3.0 3.0 9.0 4.0 2.0 8.0 0.0 1.0 4.0 8.0 1.0 3.0 -422.0 0.0 10.0 10.0 7.0 1.0 6.0 8.0 3.0 4.0 5.0 10.0 6.0 2.0 10.0 7.0 3.0 4.0 0.0 4.0 2.0 1.0 7.0 2.0 8.0 0.0 2.0 7.0 4.0 1.0 4.0 0.0 8.0 7.0 2.0 8.0 
2.0 8.0 3.0 5.0 7.0 3.0 5.0 0.0 7.0 7.0 7.0 1.0 9.0 9.0 9.0 6.0 2.0 7.0 0.0 0.0 4.0 9.0 8.0 10.0 7.0 4.0 3.0 1.0 10.0 0.0 1.0 7.0 2.0 1.0 6.0 1.0 4.0 3.0 5.0 0.0 8.0 0.0 5.0 6.0 0.0 0.0 10.0 4.0 1.0 1.0 7.0 10.0 0.0 -414.0 7.0 3.0 3.0 6.0 2.0 6.0 6.0 10.0 8.0 7.0 3.0 6.0 3.0 3.0 9.0 4.0 9.0 5.0 9.0 7.0 4.0 10.0 0.0 3.0 10.0 2.0 4.0 6.0 6.0 0.0 8.0 0.0 4.0 6.0 
10.0 9.0 1.0 10.0 3.0 7.0 9.0 5.0 5.0 9.0 2.0 1.0 2.0 1.0 7.0 10.0 2.0 7.0 9.0 4.0 2.0 9.0 6.0 6.0 3.0 3.0 7.0 2.0 9.0 6.0 3.0 4.0 3.0 6.0 2.0 3.0 4.0 10.0 1.0 4.0 6.0 9.0 6.0 5.0 2.0 8.0 10.0 3.0 6.0 10.0 4.0 8.0 10.0 7.0 -490.0 10.0 9.0 3.0 5.0 0.0 8.0 2.0 5.0 7.0 6.0 10.0 10.0 1.0 10.0 4.0 7.0 1.0 8.0 7.0 9.0 2.0 4.0 4.0 10.0 5.0 1.0 4.0 9.0 9.0 2.0 8.0 7.0 3.0 
0.0 1.0 0.0 2.0 0.0 6.0 0.0 1.0 4.0 0.0 8.0 10.0 8.0 4.0 9.0 9.0 10.0 8.0 3.0 8.0 9.0 10.0 8.0 8.0 3.0 1.0 1.0 1.0 6.0 4.0 4.0 3.0 1.0 4.0 0.0 6.0 3.0 7.0 7.0 8.0 2.0 3.0 10.0 7.0 0.0 1.0 1.0 3.0 1.0 9.0 4.0 8.0 10.0 3.0 10.0 -439.0 8.0 3.0 3.0 8.0 5.0 10.0 7.0 3.0 6.0 8.0 6.0 1.0 6.0 7.0 7.0 1.0 5.0 4.0 5.0 9.0 8.0 8.0 8.0 7.0 1.0 4.0 7.0 7.0 3.0 10.0 6.0 1.0 
1.0 1.0 8.0 6.0 9.0 4.0 8.0 0.0 4.0 8.0 8.0 1.0 9.0 10.0 7.0 0.0 1.0 10.0 10.0 1.0 5.0 5.0 6.0 2.0 6.0 9.0 4.0 2.0 6.0 5.0 5.0 1.0 10.0 2.0 8.0 4.0 0.0 10.0 4.0 1.0 4.0 4.0 4.0 5.0 4.0 2.0 4.0 8.0 1.0 3.0 0.0 3.0 7.0 3.0 9.0 8.0 -431.0 2.0 10.0 1.0 6.0 1.0 3.0 4.0 1.0 9.0 4.0 7.0 9.0 9.0 10.0 1.0 1.0 10.0 1.0 9.0 5.0 4.0 3.0 9.0 3.0 10.0 1.0 7.0 6.0 4.0 8.0 3.0 
10.0 5.0 1.0 6.0 1.0 3.0 5.0 6.0 10.0 1.0 6.0 7.0 9.0 4.0 9.0 6.0 6.0 8.0 9.0 3.0 5.0 9.0 6.0 5.0 10.0 2.0 0.0 6.0 10.0 7.0 9.0 5.0 7.0 8.0 4.0 3.0 6.0 8.0 6.0 0.0 4.0 5.0 6.0 6.0 0.0 4.0 8.0 8.0 10.0 8.0 10.0 1.0 1.0 6.0 3.0 3.0 2.0 -445.0 2.0 1.0 3.0 5.0 4.0 2.0 10.0 2.0 1.0 2.0 6.0 6.0 5.0 7.0 8.0 7.0 3.0 6.0 4.0 3.0 1.0 9.0 9.0 3.0 8.0 4.0 6.0 0.0 0.0 2.0 
10.0 2.0 4.0 4.0 6.0 3.0 0.0 8.0 1.0 5.0 3.0 4.0 1.0 2.0 4.0 2.0 9.0 6.0 0.0 8.0 3.0 8.0 4.0 3.0 6.0 5.0 9.0 10.0 10.0 3.0 5.0 1.0 1.0 6.0 8.0 6.0 5.0 2.0 5.0 3.0 6.0 5.0 9.0 6.0 3.0 6.0 4.0 4.0 5.0 9.0 5.0 5.0 6.0 2.0 5.0 3.0 10.0 2.0 -411.0 6.0 9.0 2.0 6.0 1.0 7.0 3.0 0.0 9.0 0.0 2.0 0.0 4.0 4.0 1.0 2.0 6.0 10.0 7.0 4.0 5.0 8.0 0.0 10.0 5.0 2.0 5.0 7.0 6.0 
4.0 10.0 10.0 4.0 7.0 7.0 1.0 7.0 0.0 10.0 2.0 6.0 10.0 7.0 5.0 5.0 1.0 4.0 4.0 5.0 5.0 4.0 5.0 4.0 4.0 2.0 2.0 10.0 1.0 6.0 8.0 4.0 10.0 7.0 2.0 8.0 7.0 0.0 5.0 10.0 1.0 8.0 1.0 4.0 10.0 5.0 3.0 7.0 5.0 6.0 3.0 10.0 8.0 6.0 0.0 8.0 1.0 1.0 6.0 -455.0 4.0 10.0 3.0 1.0 7.0 6.0 6.0 3.0 7.0 3.0 10.0 10.0 6.0 3.0 6.0 7.0 3.0 7.0 1.0 2.0 5.0 8.0 7.0 4.0 2.0 2.0 7.0 9.0 
3.0 4.0 2.0 4.0 9.0 1.0 5.0 7.0 0.0 3.0 8.0 9.0 10.0 6.0 5.0 5.0 9.0 9.0 10.0 8.0 2.0 8.0 7.0 10.0 0.0 2.0 1.0 7.0 8.0 10.0 8.0 8.0 10.0 7.0 10.0 6.0 1.0 3.0 0.0 5.0 10.0 4.0 4.0 7.0 0.0 10.0 3.0 8.0 0.0 6.0 7.0 4.0 3.0 6.0 8.0 5.0 6.0 3.0 9.0 4.0 -463.0 3.0 7.0 4.0 9.0 3.0 8.0 1.0 4.0 6.0 5.0 1.0 5.0 1.0 0.0 1.0 1.0 7.0 10.0 5.0 7.0 0.0 2.0 7.0 10.0 7.0 5.0 7.0 
0.0 1.0 2.0 9.0 6.0 7.0 3.0 6.0 2.0 4.0 3.0 2.0 5.0 8.0 3.0 7.0 0.0 8.0 2.0 7.0 4.0 9.0 10.0 3.0 10.0 10.0 8.0 0.0 1.0 3.0 9.0 7.0 1.0 1.0 8.0 3.0 7.0 3.0 3.0 8.0 4.0 0.0 1.0 4.0 2.0 8.0 2.0 2.0 8.0 4.0 4.0 6.0 4.0 10.0 2.0 10.0 1.0 5.0 2.0 10.0 3.0 -401.0 4.0 6.0 3.0 8.0 4.0 9.0 3.0 2.0 9.0 2.0 10.0 2.0 2.0 2.0 0.0 9.0 5.0 4.0 5.0 3.0 7.0 7.0 0.0 7.0 3.0 0.0 
7.0 7.0 2.0 4.0 1.0 8.0 3.0 10.0 5.0 6.0 4.0 3.0 8.0 10.0 9.0 5.0 3.0 5.0 9.0 9.0 10.0 2.0 5.0 3.0 4.0 4.0 8.0 4.0 9.0 10.0 2.0 4.0 8.0 1.0 9.0 3.0 7.0 1.0 9.0 3.0 9.0 5.0 0.0 2.0 3.0 8.0 9.0 7.0 6.0 4.0 5.0 0.0 5.0 8.0 5.0 7.0 3.0 4.0 6.0 3.0 7.0 4.0 -446.0 10.0 1.0 0.0 4.0 8.0 9.0 5.0 4.0 0.0 3.0 6.0 8.0 0.0 1.0 0.0 1.0 6.0 8.0 7.0 2.0 0.0 3.0 10.0 7.0 9.0 
8.0 1.0 1.0 7.0 8.0 8.0 0.0 0.0 10.0 8.0 6.0 8.0 3.0 4.0 6.0 3.0 5.0 10.0 10.0 6.0 4.0 7.0 0.0 1.0 1.0 10.0 2.0 4.0 6.0 4.0 4.0 2.0 5.0 4.0 4.0 10.0 4.0 2.0 8.0 3.0 8.0 6.0 8.0 1.0 8.0 1.0 1.0 9.0 8.0 5.0 1.0 7.0 10.0 7.0 7.0 3.0 4.0 2.0 1.0 1.0 4.0 6.0 10.0 -438.0 3.0 8.0 7.0 3.0 8.0 5.0 4.0 3.0 6.0 2.0 4.0 3.0 5.0 5.0 2.0 8.0 7.0 4.0 7.0 4.0 5.0 8.0 9.0 3.0 
3.0 2.0 0.0 9.0 5.0 2.0 5.0 9.0 10.0 2.0 6.0 8.0 6.0 7.0 8.0 1.0 4.0 8.0 9.0 7.0 1.0 0.0 1.0 8.0 3.0 4.0 8.0 0.0 0.0 5.0 5.0 7.0 0.0 1.0 0.0 6.0 8.0 6.0 0.0 10.0 7.0 5.0 2.0 4.0 1.0 10.0 6.0 7.0 0.0 7.0 7.0 8.0 6.0 3.0 6.0 6.0 1.0 10.0 7.0 7.0 9.0 3.0 1.0 3.0 -426.0 7.0 10.0 5.0 7.0 2.0 3.0 4.0 9.0 9.0 0.0 1.0 10.0 7.0 2.0 6.0 6.0 8.0 10.0 0.0 1.0 0.0 5.0 4.0 
0.0 2.0 2.0 4.0 0.0 10.0 7.0 7.0 4.0 2.0 10.0 10.0 9.0 9.0 8.0 6.0 3.0 1.0 5.0 0.0 10.0 10.0 4.0 4.0 6.0 10.0 5.0 2.0 0.0 3.0 2.0 9.0 9.0 9.0 0.0 1.0 4.0 10.0 2.0 2.0 1.0 2.0 2.0 10.0 2.0 5.0 0.0 2.0 1.0 4.0 7.0 9.0 2.0 6.0 10.0 8.0 9.0 2.0 3.0 6.0 3.0 8.0 0.0 8.0 7.0 -431.0 10.0 2.0 10.0 4.0 5.0 6.0 10.0 9.0 6.0 9.0 9.0 0.0 4.0 8.0 8.0 1.0 0.0 2.0 4.0 0.0 3.0 3.0 
6.0 8.0 2.0 8.0 7.0 5.0 6.0 4.0 4.0 2.0 7.0 4.0 9.0 4.0 0.0 2.0 1.0 7.0 7.0 6.0 7.0 6.0 8.0 5.0 2.0 9.0 1.0 9.0 3.0 3.0 1.0 8.0 2.0 4.0 2.0 7.0 3.0 0.0 0.0 4.0 2.0 0.0 9.0 4.0 7.0 4.0 4.0 6.0 2.0 10.0 10.0 6.0 10.0 3.0 10.0 6.0 4.0 1.0 0.0 6.0 8.0 4.0 4.0 7.0 10.0 10.0 -436.0 4.0 1.0 7.0 5.0 3.0 2.0 10.0 6.0 0.0 2.0 7.0 5.0 8.0 1.0 9.0 3.0 8.0 8.0 3.0 8.0 6.0 
2.0 6.0 3.0 4.0 4.0 4.0 1.0 0.0 0.0 9.0 7.0 10.0 5.0 5.0 4.0 0.0 9.0 10.0 10.0 9.0 5.0 1.0 6.0 3.0 9.0 1.0 4.0 6.0 8.0 1.0 4.0 8.0 3.0 4.0 7.0 3.0 8.0 8.0 7.0 0.0 4.0 4.0 10.0 10.0 3.0 2.0 7.0 4.0 6.0 0.0 5.0 4.0 7.0 3.0 1.0 1.0 7.0 2.0 9.0 3.0 1.0 9.0 8.0 3.0 5.0 2.0 4.0 -408.0 0.0 2.0 8.0 1.0 9.0 0.0 4.0 0.0 2.0 1.0 8.0 1.0 8.0 1.0 7.0 10.0 8.0 7.0 4.0 5.0 
4.0 3.0 1.0 7.0 7.0 4.0 2.0 4.0 8.0 0.0 9.0 4.0 10.0 10.0 9.0 6.0 0.0 3.0 4.0 1.0 3.0 0.0 8.0 5.0 6.0 2.0 7.0 10.0 3.0 7.0 2.0 5.0 0.0 10.0 0.0 9.0 5.0 6.0 3.0 8.0 2.0 4.0 2.0 1.0 5.0 6.0 1.0 10.0 0.0 0.0 2.0 7.0 3.0 9.0 10.0 6.0 9.0 6.0 0.0 7.0 4.0 3.0 9.0 8.0 7.0 10.0 1.0 0.0 -404.0 6.0 5.0 0.0 3.0 0.0 10.0 7.0 3.0 7.0 5.0 0.0 1.0 1.0 6.0 4.0 3.0 3.0 4.0 9.0 
1.0 7.0 3.0 2.0 3.0 8.0 10.0 8.0 9.0 3.0 4.0 2.0 7.0 6.0 8.0 6.0 1.0 9.0 7.0 9.0 8.0 2.0 1.0 10.0 3.0 4.0 0.0 3.0 1.0 1.0 0.0 6.0 7.0 6.0 6.0 2.0 5.0 7.0 9.0 7.0 7.0 4.0 10.0 1.0 1.0 1.0 5.0 8.0 2.0 1.0 5.0 2.0 4.0 4.0 4.0 7.0 9.0 6.0 2.0 3.0 6.0 2.0 5.0 5.0 2.0 4.0 7.0 2.0 6.0 -448.0 8.0 6.0 9.0 10.0 9.0 9.0 10.0 3.0 4.0 1.0 6.0 5.0 5.0 3.0 6.0 9.0 10.0 9.0 
5.0 7.0 8.0 7.0 6.0 2.0 8.0 4.0 3.0 0.0 9.0 9.0 7.0 3.0 6.0 3.0 3.0 5.0 8.0 4.0 8.0 5.0 9.0 6.0 3.0 2.0 4.0 3.0 0.0 1.0 7.0 9.0 6.0 1.0 1.0 10.0 0.0 9.0 5.0 2.0 8.0 3.0 7.0 2.0 5.0 6.0 3.0 7.0 2.0 8.0 2.0 1.0 0.0 9.0 7.0 7.0 10.0 5.0 0.0 10.0 5.0 9.0 4.0 4.0 3.0 5.0 5.0 8.0 5.0 8.0 -416.0 6.0 1.0 5.0 9.0 4.0 6.0 7.0 2.0 1.0 8.0 1.0 5.0 0.0 5.0 0.0 0.0 0.0 
0.0 7.0 3.0 8.0 9.0 3.0 6.0 8.0 3.0 9.0 0.0 5.0 8.0 4.0 4.0 0.0 0.0 9.0 5.0 8.0 4.0 6.0 1.0 8.0 0.0 1.0 7.0 7.0 1.0 5.0 5.0 3.0 4.0 3.0 10.0 7.0 4.0 9.0 9.0 5.0 8.0 3.0 6.0 9.0 8.0 7.0 6.0 6.0 4.0 4.0 7.0 9.0 4.0 5.0 1.0 1.0 1.0 7.0 4.0 10.0 1.0 2.0 0.0 3.0 4.0 6.0 3.0 1.0 0.0 6.0 6.0 -426.0 10.0 3.0 8.0 3.0 5.0 5.0 1.0 2.0 9.0 3.0 10.0 6.0 9.0 7.0 0.0 5.0 
4.0 5.0 8.0 8.0 5.0 10.0 0.0 5.0 9.0 2.0 3.0 4.0 6.0 7.0 5.0 6.0 1.0 4.0 7.0 8.0 3.0 7.0 7.0 8.0 8.0 7.0 2.0 3.0 6.0 5.0 7.0 9.0 6.0 3.0 3.0 7.0 0.0 1.0 6.0 10.0 6.0 10.0 10.0 1.0 4.0 0.0 9.0 5.0 6.0 8.0 7.0 5.0 2.0 9.0 8.0 5.0 1.0 8.0 4.0 6.0 5.0 10.0 3.0 6.0 9.0 10.0 2.0 9.0 3.0 9.0 1.0 10.0 -465.0 3.0 2.0 6.0 3.0 5.0 4.0 0.0 4.0 9.0 7.0 7.0 0.0 1.0 5.0 3.0 
4.0 9.0 1.0 7.0 2.0 4.0 3.0 8.0 1.0 0.0 4.0 9.0 4.0 10.0 0.0 4.0 10.0 2.0 10.0 10.0 10.0 3.0 6.0 10.0 2.0 10.0 10.0 9.0 2.0 9.0 9.0 2.0 6.0 6.0 5.0 3.0 10.0 2.0 7.0 7.0 2.0 7.0 4.0 3.0 5.0 2.0 4.0 2.0 5.0 9.0 1.0 5.0 1.0 7.0 7.0 4.0 10.0 7.0 1.0 3.0 1.0 2.0 6.0 2.0 9.0 9.0 10.0 0.0 0.0 10.0 5.0 3.0 3.0 -430.0 0.0 3.0 5.0 3.0 1.0 8.0 10.0 2.0 4.0 7.0 3.0 0.0 4.0 1.0 
7.0 3.0 6.0 1.0 4.0 2.0 9.0 2.0 6.0 8.0 9.0 7.0 10.0 5.0 8.0 4.0 3.0 7.0 2.0 4.0 10.0 4.0 2.0 9.0 2.0 8.0 5.0 8.0 2.0 4.0 8.0 8.0 5.0 5.0 2.0 4.0 10.0 9.0 2.0 9.0 5.0 4.0 10.0 1.0 3.0 2.0 2.0 8.0 5.0 3.0 6.0 8.0 7.0 4.0 9.0 5.0 1.0 3.0 2.0 6.0 0.0 2.0 8.0 4.0 0.0 6.0 6.0 4.0 10.0 9.0 9.0 8.0 2.0 0.0 -430.0 0.0 1.0 0.0 9.0 4.0 9.0 4.0 6.0 1.0 1.0 7.0 2.0 1.0 
3.0 3.0 6.0 0.0 8.0 10.0 5.0 2.0 7.0 7.0 6.0 8.0 7.0 5.0 0.0 6.0 7.0 7.0 7.0 0.0 9.0 4.0 6.0 7.0 3.0 10.0 7.0 2.0 8.0 2.0 5.0 5.0 8.0 8.0 3.0 4.0 10.0 9.0 8.0 9.0 6.0 4.0 10.0 0.0 10.0 4.0 3.0 0.0 0.0 2.0 10.0 5.0 2.0 10.0 2.0 9.0 9.0 6.0 6.0 7.0 1.0 2.0 0.0 3.0 1.0 9.0 0.0 0.0 7.0 9.0 4.0 3.0 6.0 3.0 0.0 -458.0 8.0 4.0 10.0 5.0 5.0 10.0 7.0 3.0 7.0 10.0 4.0 1.0 
7.0 10.0 8.0 1.0 1.0 3.0 2.0 0.0 1.0 5.0 10.0 1.0 2.0 1.0 9.0 0.0 3.0 8.0 10.0 7.0 10.0 10.0 3.0 8.0 0.0 7.0 2.0 5.0 6.0 9.0 0.0 1.0 7.0 2.0 4.0 10.0 1.0 9.0 1.0 9.0 9.0 7.0 4.0 4.0 4.0 4.0 0.0 1.0 3.0 6.0 3.0 1.0 8.0 0.0 4.0 8.0 5.0 4.0 10.0 3.0 1.0 0.0 1.0 5.0 10.0 9.0 2.0 2.0 3.0 10.0 6.0 5.0 3.0 5.0 1.0 8.0 -424.0 0.0 8.0 10.0 9.0 2.0 8.0 7.0 10.0 0.0 10.0 8.0 
0.0 9.0 9.0 0.0 3.0 6.0 6.0 4.0 6.0 0.0 0.0 3.0 5.0 7.0 3.0 1.0 6.0 6.0 2.0 6.0 5.0 8.0 4.0 2.0 5.0 6.0 5.0 2.0 6.0 1.0 9.0 4.0 10.0 2.0 9.0 0.0 5.0 7.0 2.0 0.0 6.0 9.0 9.0 1.0 3.0 4.0 0.0 1.0 8.0 3.0 0.0 7.0 0.0 3.0 4.0 8.0 4.0 3.0 7.0 7.0 7.0 9.0 0.0 5.0 7.0 0.0 7.0 1.0 7.0 3.0 7.0 5.0 5.0 3.0 0.0 4.0 0.0 -384.0 4.0 4.0 9.0 3.0 9.0 7.0 4.0 4.0 5.0 4.0 
5.0 6.0 2.0 1.0 8.0 7.0 4.0 4.0 7.0 8.0 6.0 8.0 3.0 1.0 0.0 10.0 2.0 6.0 1.0 5.0 5.0 10.0 7.0 9.0 9.0 6.0 0.0 8.0 0.0 6.0 4.0 3.0 2.0 10.0 4.0 9.0 2.0 5.0 8.0 1.0 3.0 6.0 10.0 0.0 3.0 5.0 10.0 4.0 4.0 0.0 7.0 3.0 2.0 10.0 10.0 8.0 3.0 1.0 4.0 1.0 10.0 5.0 1.0 2.0 2.0 4.0 5.0 8.0 5.0 4.0 2.0 1.0 4.0 1.0 9.0 10.0 8.0 4.0 -442.0 7.0 10.0 1.0 9.0 1.0 5.0 10.0 10.0 8.0 
9.0 4.0 3.0 5.0 4.0 4.0 4.0 7.0 5.0 2.0 2.0 6.0 6.0 1.0 6.0 3.0 4.0 6.0 7.0 2.0 8.0 8.0 8.0 8.0 0.0 8.0 5.0 7.0 6.0 10.0 7.0 9.0 0.0 9.0 1.0 6.0 8.0 2.0 4.0 10.0 1.0 6.0 9.0 0.0 8.0 6.0 4.0 1.0 5.0 8.0 0.0 9.0 7.0 2.0 5.0 7.0 9.0 9.0 5.0 2.0 5.0 4.0 6.0 8.0 6.0 8.0 8.0 1.0 0.0 1.0 1.0 2.0 0.0 8.0 4.0 5.0 10.0 4.0 7.0 -442.0 5.0 7.0 1.0 1.0 3.0 9.0 4.0 7.0 
3.0 0.0 8.0 0.0 0.0 9.0 7.0 4.0 8.0 1.0 2.0 2.0 0.0 1.0 10.0 8.0 0.0 7.0 9.0 3.0 3.0 0.0 10.0 7.0 8.0 6.0 10.0 0.0 1.0 2.0 4.0 10.0 8.0 5.0 9.0 7.0 9.0 3.0 1.0 7.0 1.0 10.0 10.0 4.0 9.0 8.0 5.0 5.0 6.0 2.0 6.0 8.0 4.0 4.0 1.0 1.0 3.0 9.0 8.0 5.0 7.0 5.0 8.0 7.0 6.0 8.0 1.0 8.0 1.0 6.0 8.0 9.0 4.0 10.0 9.0 5.0 9.0 9.0 10.0 5.0 -471.0 4.0 7.0 6.0 10.0 5.0 3.0 0.0 
1.0 0.0 2.0 8.0 9.0 0.0 5.0 5.0 6.0 4.0 9.0 1.0 0.0 3.0 7.0 9.0 6.0 7.0 6.0 1.0 5.0 7.0 9.0 1.0 2.0 10.0 4.0 0.0 7.0 9.0 6.0 7.0 6.0 8.0 10.0 6.0 0.0 6.0 8.0 10.0 10.0 4.0 4.0 3.0 0.0 2.0 8.0 4.0 2.0 6.0 0.0 6.0 1.0 6.0 4.0 4.0 10.0 3.0 0.0 8.0 0.0 3.0 7.0 4.0 8.0 1.0 9.0 1.0 1.0 5.0 1.0 3.0 9.0 2.0 4.0 10.0 2.0 3.0 1.0 7.0 4.0 -401.0 5.0 0.0 3.0 5.0 2.0 6.0 
8.0 0.0 8.0 2.0 9.0 7.0 3.0 5.0 6.0 8.0 6.0 4.0 4.0 7.0 7.0 9.0 8.0 9.0 0.0 5.0 2.0 5.0 6.0 6.0 0.0 4.0 7.0 2.0 7.0 1.0 1.0 9.0 10.0 0.0 8.0 6.0 1.0 4.0 1.0 0.0 10.0 4.0 4.0 3.0 0.0 9.0 2.0 1.0 1.0 4.0 9.0 7.0 4.0 6.0 9.0 7.0 1.0 8.0 10.0 7.0 2.0 7.0 2.0 7.0 10.0 0.0 3.0 7.0 6.0 5.0 5.0 10.0 7.0 4.0 6.0 7.0 8.0 9.0 9.0 1.0 7.0 5.0 -455.0 7.0 4.0 8.0 2.0 6.0 
6.0 0.0 10.0 3.0 6.0 8.0 2.0 10.0 2.0 9.0 10.0 6.0 8.0 6.0 3.0 5.0 4.0 6.0 6.0 4.0 2.0 0.0 1.0 10.0 9.0 2.0 3.0 10.0 5.0 6.0 8.0 3.0 4.0 9.0 9.0 10.0 1.0 0.0 1.0 0.0 9.0 5.0 2.0 4.0 7.0 3.0 6.0 5.0 3.0 10.0 2.0 3.0 0.0 0.0 9.0 7.0 7.0 4.0 5.0 4.0 7.0 7.0 0.0 4.0 0.0 2.0 8.0 10.0 4.0 3.0 0.0 6.0 7.0 7.0 1.0 3.0 7.0 7.0 1.0 1.0 6.0 0.0 7.0 -426.0 3.0 6.0 9.0 8.0 
5.0 0.0 5.0 8.0 2.0 3.0 10.0 2.0 7.0 1.0 10.0 2.0 9.0 10.0 7.0 3.0 1.0 2.0 3.0 2.0 2.0 7.0 3.0 9.0 6.0 0.0 4.0 8.0 8.0 0.0 5.0 1.0 2.0 5.0 8.0 2.0 8.0 5.0 5.0 0.0 2.0 5.0 3.0 3.0 6.0 1.0 4.0 3.0 7.0 5.0 2.0 6.0 8.0 8.0 2.0 3.0 6.0 6.0 2.0 2.0 10.0 0.0 3.0 5.0 1.0 4.0 8.0 8.0 3.0 6.0 5.0 9.0 0.0 3.0 1.0 7.0 10.0 4.0 5.0 3.0 10.0 3.0 4.0 3.0 -384.0 2.0 0.0 3.0 
2.0 0.0 8.0 4.0 10.0 1.0 5.0 10.0 10.0 4.0 5.0 0.0 9.0 2.0 2.0 3.0 1.0 7.0 0.0 9.0 4.0 6.0 1.0 6.0 2.0 9.0 3.0 2.0 7.0 9.0 8.0 8.0 9.0 7.0 4.0 1.0 3.0 0.0 8.0 4.0 8.0 0.0 0.0 2.0 5.0 5.0 4.0 0.0 3.0 5.0 7.0 9.0 7.0 0.0 8.0 10.0 4.0 0.0 5.0 2.0 7.0 7.0 10.0 8.0 0.0 0.0 3.0 7.0 3.0 9.0 0.0 7.0 1.0 0.0 7.0 10.0 0.0 4.0 10.0 9.0 5.0 5.0 8.0 6.0 2.0 -413.0 0.0 8.0 
8.0 0.0 3.0 7.0 3.0 5.0 10.0 9.0 0.0 3.0 4.0 1.0 10.0 5.0 1.0 9.0 3.0 7.0 5.0 0.0 9.0 7.0 9.0 1.0 2.0 6.0 7.0 6.0 5.0 6.0 6.0 7.0 10.0 0.0 8.0 9.0 7.0 5.0 5.0 1.0 7.0 4.0 3.0 9.0 9.0 5.0 1.0 5.0 6.0 10.0 3.0 6.0 2.0 4.0 7.0 6.0 8.0 0.0 7.0 7.0 5.0 3.0 7.0 9.0 5.0 3.0 8.0 4.0 4.0 10.0 0.0 0.0 5.0 4.0 2.0 4.0 10.0 5.0 10.0 4.0 3.0 2.0 2.0 9.0 0.0 0.0 -442.0 6.0 
5.0 0.0 1.0 1.0 3.0 7.0 2.0 5.0 4.0 5.0 10.0 4.0 10.0 0.0 7.0 10.0 7.0 8.0 10.0 1.0 6.0 3.0 3.0 2.0 10.0 6.0 4.0 8.0 8.0 7.0 8.0 6.0 4.0 7.0 10.0 6.0 2.0 5.0 0.0 3.0 10.0 0.0 2.0 1.0 0.0 2.0 9.0 7.0 1.0 0.0 4.0 2.0 8.0 6.0 3.0 1.0 3.0 2.0 6.0 9.0 7.0 0.0 9.0 3.0 4.0 3.0 6.0 5.0 9.0 9.0 0.0 5.0 3.0 1.0 1.0 1.0 8.0 4.0 8.0 7.0 0.0 6.0 6.0 8.0 3.0 8.0 6.0 -414.0 

